
Gurobi 9.5.0 (win64) logging started Tue Dec  7 11:49:45 2021

Set parameter LogFile to value "../results/logs/log_2021_12_07_11_49.csv_20_41.log"
Set parameter Method to value 3
Gurobi Optimizer version 9.5.0 build v9.5.0rc5 (win64)
Thread count: 6 physical cores, 12 logical processors, using up to 12 threads
Optimize a model with 61 rows, 230 columns and 2647 nonzeros
Model fingerprint: 0x1a97cc99
Variable types: 115 continuous, 115 integer (115 binary)
Coefficient statistics:
  Matrix range     [1e+00, 2e+01]
  Objective range  [1e+00, 1e+00]
  Bounds range     [1e+00, 1e+00]
  RHS range        [1e+00, 4e+01]
Found heuristic solution: objective -0.0000000
Presolve removed 25 rows and 134 columns
Presolve time: 0.00s
Presolved: 36 rows, 96 columns, 703 nonzeros
Extracted 8 lazy constraints
Variable types: 76 continuous, 20 integer (20 binary)

Root relaxation: objective 2.000000e+01, 19 iterations, 0.00 seconds (0.00 work units)

    Nodes    |    Current Node    |     Objective Bounds      |     Work
 Expl Unexpl |  Obj  Depth IntInf | Incumbent    BestBd   Gap | It/Node Time

     0     0   19.37095    0    5   -0.00000   19.37095      -     -    0s
H    0     0                      16.0000000   19.37095  21.1%     -    0s
     0     0   19.20462    0    5   16.00000   19.20462  20.0%     -    0s
     0     0   19.14971    0    3   16.00000   19.14971  19.7%     -    0s
     0     0   19.05302    0    6   16.00000   19.05302  19.1%     -    0s
     0     0   19.05302    0    6   16.00000   19.05302  19.1%     -    0s
H    0     0                      18.0000000   19.05302  5.85%     -    0s
     0     0 infeasible    0        18.00000   18.00000  0.00%     -    0s

Explored 1 nodes (135 simplex iterations) in 0.02 seconds (0.01 work units)
Thread count was 12 (of 12 available processors)

Solution count 3: 18 16 -0 

Optimal solution found (tolerance 1.00e-04)
Best objective 1.800000000000e+01, best bound 1.800000000000e+01, gap 0.0000%
